set jobs := j1 j2 j3;
set tasks[j1] := t1 t2 t3;
set tasks[j2] := t1 t2;
set tasks[j3] := t1 t2 t3;

param machine :=
	[j1, *] t1 1 t2 2 t3 3
	[j2, *] t1 2 t2 1
	[j3, *] t1 1 t2 2 t3 3;
	
param proc_time :=
	[j1, *] t1 3 t2 2 t3 2
	[j2, *] t1 2 t2 1
	[j3, *] t1 4 t2 2 t3 3;